nN = 7;
nR = 15;
nH = 1;

a = [[14, 17, 20, 25, 18, 11, 11, 23, 22, 7, 9, 18, 21, 18, 16], [25, 19, 25, 18, 8, 11, 17, 21, 12, 14, 8, 10, 14, 22, 18], [10, 7, 18, 8, 16, 19, 9, 8, 15, 7, 14, 8, 21, 8, 19], [10, 8, 19, 14, 21, 22, 22, 24, 7, 16, 25, 19, 20, 12, 21], [18, 22, 11, 19, 15, 7, 25, 5, 20, 7, 15, 10, 22, 20, 18], [24, 20, 8, 5, 14, 25, 24, 14, 11, 6, 5, 12, 22, 22, 8], [20, 15, 24, 10, 14, 24, 6, 23, 23, 6, 7, 20, 21, 12, 23]];
c = [[[0, 0, 0, 0, 0, 0, 0, 0, 0, 0, 0, 0, 0, 0, 0], [41, 34, 43, 35, 37, 37, 38, 32, 31, 30, 31, 33, 38, 38, 37], [44, 31, 49, 31, 33, 46, 32, 37, 31, 39, 45, 36, 46, 50, 43], [44, 41, 42, 34, 33, 39, 42, 48, 44, 33, 49, 50, 47, 38, 31], [32, 33, 35, 41, 44, 36, 34, 34, 35, 50, 30, 38, 49, 36, 33], [49, 34, 36, 39, 35, 40, 43, 40, 50, 49, 44, 49, 43, 36, 43], [38, 30, 34, 38, 38, 44, 40, 31, 44, 48, 44, 45, 34, 42, 42]], [[0, 0, 0, 0, 0, 0, 0, 0, 0, 0, 0, 0, 0, 0, 0], [0, 0, 0, 0, 0, 0, 0, 0, 0, 0, 0, 0, 0, 0, 0], [37, 47, 34, 49, 33, 41, 47, 40, 44, 37, 36, 45, 46, 48, 47], [36, 32, 31, 31, 43, 45, 36, 37, 46, 38, 43, 37, 32, 31, 48], [48, 36, 30, 40, 42, 33, 33, 35, 35, 30, 41, 43, 32, 42, 30], [40, 34, 46, 34, 34, 34, 46, 36, 42, 50, 44, 33, 45, 43, 39], [35, 38, 38, 37, 40, 44, 44, 33, 46, 37, 32, 49, 37, 34, 45]], [[0, 0, 0, 0, 0, 0, 0, 0, 0, 0, 0, 0, 0, 0, 0], [0, 0, 0, 0, 0, 0, 0, 0, 0, 0, 0, 0, 0, 0, 0], [0, 0, 0, 0, 0, 0, 0, 0, 0, 0, 0, 0, 0, 0, 0], [37, 47, 35, 34, 36, 34, 48, 30, 44, 46, 44, 50, 42, 36, 48], [33, 34, 41, 43, 47, 47, 39, 32, 45, 49, 33, 39, 41, 41, 38], [49, 41, 48, 32, 38, 37, 35, 36, 47, 43, 42, 41, 43, 39, 46], [43, 31, 35, 39, 40, 50, 43, 42, 36, 32, 30, 46, 47, 41, 30]], [[0, 0, 0, 0, 0, 0, 0, 0, 0, 0, 0, 0, 0, 0, 0], [0, 0, 0, 0, 0, 0, 0, 0, 0, 0, 0, 0, 0, 0, 0], [0, 0, 0, 0, 0, 0, 0, 0, 0, 0, 0, 0, 0, 0, 0], [0, 0, 0, 0, 0, 0, 0, 0, 0, 0, 0, 0, 0, 0, 0], [34, 33, 50, 35, 48, 47, 43, 30, 30, 41, 32, 34, 41, 49, 44], [38, 48, 31, 47, 48, 30, 49, 39, 35, 37, 50, 37, 37, 44, 48], [37, 48, 34, 41, 50, 49, 37, 35, 50, 48, 31, 46, 50, 40, 33]], [[0, 0, 0, 0, 0, 0, 0, 0, 0, 0, 0, 0, 0, 0, 0], [0, 0, 0, 0, 0, 0, 0, 0, 0, 0, 0, 0, 0, 0, 0], [0, 0, 0, 0, 0, 0, 0, 0, 0, 0, 0, 0, 0, 0, 0], [0, 0, 0, 0, 0, 0, 0, 0, 0, 0, 0, 0, 0, 0, 0], [0, 0, 0, 0, 0, 0, 0, 0, 0, 0, 0, 0, 0, 0, 0], [30, 50, 32, 50, 50, 47, 45, 41, 34, 31, 35, 43, 48, 33, 46], [47, 43, 33, 41, 49, 31, 33, 39, 35, 32, 46, 30, 37, 36, 31]], [[0, 0, 0, 0, 0, 0, 0, 0, 0, 0, 0, 0, 0, 0, 0], [0, 0, 0, 0, 0, 0, 0, 0, 0, 0, 0, 0, 0, 0, 0], [0, 0, 0, 0, 0, 0, 0, 0, 0, 0, 0, 0, 0, 0, 0], [0, 0, 0, 0, 0, 0, 0, 0, 0, 0, 0, 0, 0, 0, 0], [0, 0, 0, 0, 0, 0, 0, 0, 0, 0, 0, 0, 0, 0, 0], [0, 0, 0, 0, 0, 0, 0, 0, 0, 0, 0, 0, 0, 0, 0], [42, 47, 33, 40, 31, 37, 43, 34, 44, 34, 43, 45, 42, 34, 46]], [[0, 0, 0, 0, 0, 0, 0, 0, 0, 0, 0, 0, 0, 0, 0], [0, 0, 0, 0, 0, 0, 0, 0, 0, 0, 0, 0, 0, 0, 0], [0, 0, 0, 0, 0, 0, 0, 0, 0, 0, 0, 0, 0, 0, 0], [0, 0, 0, 0, 0, 0, 0, 0, 0, 0, 0, 0, 0, 0, 0], [0, 0, 0, 0, 0, 0, 0, 0, 0, 0, 0, 0, 0, 0, 0], [0, 0, 0, 0, 0, 0, 0, 0, 0, 0, 0, 0, 0, 0, 0], [0, 0, 0, 0, 0, 0, 0, 0, 0, 0, 0, 0, 0, 0, 0]]];
Q = [[27], [29], [30], [24], [24], [26], [23]];

q = [[[22], [24], [16], [10], [7], [6], [18], [11], [23], [10], [21], [20], [9], [17], [20]], [[22], [17], [22], [24], [16], [12], [8], [24], [5], [21], [9], [9], [16], [20], [21]], [[15], [15], [21], [13], [19], [8], [17], [12], [6], [19], [22], [20], [25], [19], [25]], [[6], [13], [17], [8], [19], [14], [9], [11], [24], [6], [24], [9], [25], [11], [13]], [[6], [21], [17], [11], [18], [9], [15], [13], [11], [6], [24], [17], [8], [10], [17]], [[7], [20], [23], [12], [10], [13], [17], [6], [13], [22], [6], [16], [15], [25], [15]], [[6], [13], [10], [18], [10], [23], [12], [15], [12], [10], [15], [10], [7], [16], [21]]];
p = [0.82, 0.07, 0.53, 0.96, 0.97, 0.57, 0.34, 0.53, 0.78, 0.99, 0.81, 0.3, 0.88, 0.49, 0.36];
